c 94_4_checker.cnf
c
c field = 94
c formula set type = 4_checker
c
p cnf 5 62
180 
182 
184 
188 
-190 
181 
183 
185 
189 
-191 
182 
184 
188 
190 
-180 
183 
185 
189 
191 
-181 
182 
184 
188 
190 
-192 
183 
185 
189 
191 
-193 
184 
188 
190 
192 
-182 
185 
189 
191 
193 
-183 
184 
188 
190 
192 
-194 
185 
189 
191 
193 
-195 
188 
190 
192 
194 
-184 
189 
191 
193 
195 
-185 
188 
190 
192 
194 
-196 
189 
191 
193 
195 
-197 
66 
96 
126 
156 
-36 
67 
97 
127 
157 
-37 
66 
96 
126 
156 
-216 
67 
97 
127 
157 
-217 
96 
126 
156 
216 
-66 
97 
127 
157 
217 
-67 
96 
126 
156 
216 
-246 
97 
127 
157 
217 
-247 
126 
156 
216 
246 
-96 
127 
157 
217 
247 
-97 
126 
156 
216 
246 
-276 
127 
157 
217 
247 
-277 
156 
216 
246 
276 
-126 
157 
217 
247 
277 
-127 
156 
216 
246 
276 
-306 
157 
217 
247 
277 
-307 
216 
246 
276 
306 
-156 
217 
247 
277 
307 
-157 
216 
246 
276 
306 
-336 
217 
247 
277 
307 
-337 
90 
122 
154 
218 
-250 
91 
123 
155 
219 
-251 
122 
154 
218 
250 
-90 
123 
155 
219 
251 
-91 
122 
154 
218 
250 
-282 
123 
155 
219 
251 
-283 
154 
218 
250 
282 
-122 
155 
219 
251 
283 
-123 
154 
218 
250 
282 
-314 
155 
219 
251 
283 
-315 
218 
250 
282 
314 
-154 
219 
251 
283 
315 
-155 
218 
250 
282 
314 
-346 
219 
251 
283 
315 
-347 
74 
102 
130 
158 
-46 
75 
103 
131 
159 
-47 
74 
102 
130 
158 
-214 
75 
103 
131 
159 
-215 
102 
130 
158 
214 
-74 
103 
131 
159 
215 
-75 
102 
130 
158 
214 
-242 
103 
131 
159 
215 
-243 
130 
158 
214 
242 
-102 
131 
159 
215 
243 
-103 
130 
158 
214 
242 
-270 
131 
159 
215 
243 
-271 
158 
214 
242 
270 
-130 
159 
215 
243 
271 
-131 
